0 125 184 57 207 103 77 121 40 103
125 0 235 127 125 62 101 37 91 144
184 235 0 236 309 192 242 233 184 94
57 127 236 0 217 124 26 102 61 151
207 125 309 217 0 120 191 119 176 218
103 62 192 124 120 0 96 93 62 105
77 101 242 26 191 96 0 76 58 148
121 37 233 102 119 93 76 0 78 166
40 91 184 61 176 62 58 78 0 90
103 144 94 151 218 105 148 166 90 0